c File: instances/38_0.65_1.col
c
c Description: Random graph of size 38 vertices and P(0.65) of edges between any two vertices.
p col 38 703
e 1 3
e 1 6
e 1 7
e 1 8
e 1 9
e 1 10
e 1 11
e 1 12
e 1 13
e 1 14
e 1 16
e 1 17
e 1 18
e 1 19
e 1 22
e 1 23
e 1 26
e 1 27
e 1 28
e 1 29
e 1 30
e 1 34
e 1 35
e 1 37
e 1 38
e 2 7
e 2 9
e 2 10
e 2 13
e 2 14
e 2 16
e 2 18
e 2 20
e 2 21
e 2 24
e 2 25
e 2 27
e 2 28
e 2 29
e 2 30
e 2 34
e 2 35
e 2 36
e 2 37
e 2 38
e 3 5
e 3 6
e 3 8
e 3 10
e 3 12
e 3 14
e 3 16
e 3 17
e 3 18
e 3 21
e 3 22
e 3 23
e 3 24
e 3 26
e 3 27
e 3 28
e 3 30
e 3 32
e 3 33
e 3 34
e 3 35
e 3 36
e 4 6
e 4 7
e 4 9
e 4 10
e 4 11
e 4 12
e 4 14
e 4 15
e 4 17
e 4 18
e 4 19
e 4 25
e 4 26
e 4 27
e 4 30
e 4 31
e 4 32
e 4 33
e 4 36
e 4 37
e 5 7
e 5 8
e 5 9
e 5 10
e 5 11
e 5 12
e 5 14
e 5 15
e 5 16
e 5 19
e 5 20
e 5 21
e 5 24
e 5 25
e 5 27
e 5 29
e 5 30
e 5 32
e 5 33
e 5 35
e 5 36
e 5 37
e 5 38
e 6 8
e 6 9
e 6 11
e 6 12
e 6 14
e 6 16
e 6 17
e 6 18
e 6 21
e 6 22
e 6 23
e 6 25
e 6 26
e 6 27
e 6 28
e 6 29
e 6 30
e 6 31
e 6 32
e 6 33
e 6 34
e 6 38
e 7 11
e 7 12
e 7 13
e 7 15
e 7 16
e 7 17
e 7 20
e 7 21
e 7 22
e 7 23
e 7 24
e 7 25
e 7 27
e 7 28
e 7 30
e 7 31
e 7 33
e 7 37
e 7 38
e 8 11
e 8 12
e 8 13
e 8 14
e 8 16
e 8 17
e 8 18
e 8 19
e 8 21
e 8 22
e 8 23
e 8 25
e 8 26
e 8 28
e 8 30
e 8 31
e 8 32
e 8 35
e 8 37
e 8 38
e 9 10
e 9 11
e 9 12
e 9 13
e 9 14
e 9 15
e 9 18
e 9 21
e 9 22
e 9 24
e 9 25
e 9 27
e 9 30
e 9 31
e 9 32
e 9 34
e 9 35
e 9 37
e 10 12
e 10 16
e 10 19
e 10 20
e 10 21
e 10 22
e 10 25
e 10 26
e 10 27
e 10 28
e 10 30
e 10 32
e 10 34
e 10 35
e 10 36
e 10 38
e 11 12
e 11 13
e 11 14
e 11 19
e 11 20
e 11 21
e 11 22
e 11 24
e 11 25
e 11 26
e 11 27
e 11 28
e 11 29
e 11 35
e 12 13
e 12 14
e 12 16
e 12 20
e 12 21
e 12 22
e 12 23
e 12 24
e 12 26
e 12 27
e 12 29
e 12 31
e 12 34
e 12 37
e 13 18
e 13 21
e 13 24
e 13 25
e 13 27
e 13 28
e 13 30
e 13 31
e 13 33
e 13 35
e 13 36
e 13 38
e 14 15
e 14 16
e 14 19
e 14 21
e 14 22
e 14 23
e 14 24
e 14 26
e 14 27
e 14 29
e 14 30
e 14 31
e 14 32
e 14 35
e 14 36
e 15 19
e 15 21
e 15 22
e 15 25
e 15 26
e 15 27
e 15 28
e 15 31
e 15 32
e 15 34
e 15 35
e 15 36
e 15 37
e 16 17
e 16 18
e 16 23
e 16 24
e 16 25
e 16 26
e 16 27
e 16 28
e 16 31
e 16 32
e 16 36
e 16 38
e 17 18
e 17 20
e 17 21
e 17 22
e 17 25
e 17 26
e 17 27
e 17 28
e 17 30
e 17 31
e 17 32
e 17 34
e 17 36
e 17 37
e 17 38
e 18 20
e 18 21
e 18 23
e 18 24
e 18 25
e 18 26
e 18 27
e 18 28
e 18 29
e 18 32
e 18 35
e 18 36
e 18 37
e 18 38
e 19 21
e 19 22
e 19 23
e 19 25
e 19 27
e 19 28
e 19 29
e 19 30
e 19 31
e 19 33
e 19 34
e 19 38
e 20 23
e 20 25
e 20 26
e 20 27
e 20 28
e 20 29
e 20 31
e 20 32
e 20 33
e 20 35
e 20 36
e 20 37
e 20 38
e 21 22
e 21 23
e 21 24
e 21 25
e 21 28
e 21 29
e 21 31
e 21 32
e 21 33
e 22 23
e 22 24
e 22 27
e 22 29
e 22 30
e 22 31
e 22 33
e 22 34
e 22 35
e 22 36
e 22 37
e 23 24
e 23 25
e 23 26
e 23 27
e 23 28
e 23 29
e 23 30
e 23 31
e 23 34
e 23 35
e 23 36
e 23 38
e 24 28
e 24 32
e 24 33
e 24 34
e 24 36
e 24 37
e 25 26
e 25 27
e 25 30
e 25 31
e 25 34
e 25 36
e 25 37
e 25 38
e 26 27
e 26 29
e 26 30
e 26 35
e 26 36
e 26 37
e 26 38
e 27 28
e 27 30
e 27 31
e 27 32
e 27 34
e 27 35
e 27 37
e 27 38
e 28 29
e 28 31
e 28 32
e 28 35
e 28 37
e 29 30
e 29 31
e 29 32
e 29 34
e 29 37
e 30 31
e 30 33
e 30 36
e 30 38
e 31 32
e 31 33
e 31 36
e 31 37
e 32 34
e 32 36
e 32 38
e 33 34
e 33 37
e 34 35
e 34 36
e 34 37
e 35 36
e 35 37
e 35 38
e 36 38
e 37 38